RT is False
Default write of storage_offers_DA.csv just to have a file (but constraint should be inactive)
Reading model...
...model read.
creating competitive generators file...
...competitive generators recorded.
Loading data...
.. day-ahead data read.
Compiling instance...
...instance created.
Creating Offer Mitigation (model will solve as dispatch if TRUE)...
NOTE: storage offers will not be mitigated
...storage offer mitigation file created
LP
RUNNING NORMAL LP
Solving...

Welcome to IBM(R) ILOG(R) CPLEX(R) Interactive Optimizer 12.9.0.0
  with Simplex, Mixed Integer & Barrier Optimizers
5725-A06 5725-A29 5724-Y48 5724-Y49 5724-Y54 5724-Y55 5655-Y21
Copyright IBM Corp. 1988, 2019.  All Rights Reserved.

Type 'help' for a list of available commands.
Type 'help' followed by a command name for more
information on commands.

CPLEX> Logfile 'cplex.log' closed.
Logfile 'C:\Users\Luke\Desktop\competitiveMPEC_1.16\logs\tmp2y7x7j8x.cplex.log' open.
CPLEX> New value for parallel optimization mode: -1
CPLEX> New value for mixed integer optimality gap tolerance: 0.01
CPLEX> New value for feasibility tolerance: 0.01
CPLEX> New value for deterministic time limit in ticks: 250000
CPLEX> Problem 'C:\Users\Luke\Desktop\competitiveMPEC_1.16\logs\tmpv_1nwpuw.pyomo.lp' read.
Read time = 0.05 sec. (2.98 ticks)
CPLEX> Problem name         : C:\Users\Luke\Desktop\competitiveMPEC_1.16\logs\tmpv_1nwpuw.pyomo.lp
Objective sense      : Minimize
Variables            :   25839  [Nneg: 49,  Box: 21422,  Free: 4368]
Objective nonzeros   :    2496
Linear constraints   :   27321  [Less: 13885,  Greater: 4416,  Equal: 9020]
  Nonzeros           :   87372
  RHS nonzeros       :   12140

Variables            : Min LB: -5000.000        Max UB: 5000.000       
Objective nonzeros   : Min   : 15.73158         Max   : 124.0997       
Linear constraints   :
  Nonzeros           : Min   : 0.8500000        Max   : 3000.000       
  RHS nonzeros       : Min   : 1.000000         Max   : 90000.00       
CPLEX> CPXPARAM_Parallel                                -1
CPXPARAM_Simplex_Tolerances_Feasibility          0.01
CPXPARAM_DetTimeLimit                            250000
CPXPARAM_MIP_Tolerances_MIPGap                   0.01
Parallel mode: opportunistic, using up to 24 threads for concurrent optimization.
Tried aggregator 1 time.
LP Presolve eliminated 22025 rows and 17630 columns.
Aggregator did 749 substitutions.
Reduced LP has 4547 rows, 7460 columns, and 19816 nonzeros.
Presolve time = 0.05 sec. (27.50 ticks)

Iteration log . . .
Iteration:     1   Dual objective     =             0.000000
Perturbation started.
Iteration:   101   Dual objective     =             0.000000
Iteration:   401   Dual objective     =             0.455901
Iteration:   727   Dual objective     =             0.765105
Iteration:  1067   Dual objective     =             1.087530
Iteration:  1393   Dual objective     =             1.354306
Iteration:  1761   Dual objective     =             1.638445
Iteration:  2072   Dual objective     =             1.814279
Iteration:  2362   Dual objective     =             1.865893
Iteration:  2608   Dual objective     =             1.892175
Iteration:  2836   Dual objective     =          4745.909617
Iteration:  3058   Dual objective     =          4745.927068
Iteration:  3349   Dual objective     =          9081.532640
Iteration:  3610   Dual objective     =         43528.752665
Iteration:  3890   Dual objective     =         59838.895310
Removing perturbation.
Using devex.

Primal simplex solved model.


Primal simplex - Optimal:  Objective =  6.1289007049e+04
Solution time =    0.11 sec.  Iterations = 2488 (2076)
Deterministic time = 75.02 ticks  (688.23 ticks/sec)

CPLEX> Solution written to file 'C:\Users\Luke\Desktop\competitiveMPEC_1.16\logs\tmp4m064p5k.cplex.sol'.
CPLEX> Exporting results... 
